(set-logic QF_UF)
(declare-fun G101 () Bool)
(declare-fun G104 () Bool)
(declare-fun G107 () Bool)
(declare-fun G110 () Bool)
(declare-fun G113 () Bool)
(declare-fun G116 () Bool)
(declare-fun G119 () Bool)
(declare-fun G122 () Bool)
(declare-fun G125 () Bool)
(declare-fun G128 () Bool)
(declare-fun G131 () Bool)
(declare-fun G134 () Bool)
(declare-fun G137 () Bool)
(declare-fun G140 () Bool)
(declare-fun G143 () Bool)
(declare-fun G146 () Bool)
(declare-fun G210 () Bool)
(declare-fun G214 () Bool)
(declare-fun G217 () Bool)
(declare-fun G221 () Bool)
(declare-fun G224 () Bool)
(declare-fun G227 () Bool)
(declare-fun G234 () Bool)
(declare-fun G237 () Bool)
(declare-fun G469 () Bool)
(declare-fun G472 () Bool)
(declare-fun G475 () Bool)
(declare-fun G478 () Bool)
(declare-fun G898 () Bool)
(declare-fun G900 () Bool)
(declare-fun G902 () Bool)
(declare-fun G952 () Bool)
(declare-fun G953 () Bool)
(assert (let ((.def_0 (not G902))) (let ((.def_1 (not G119))) (let ((.def_2 (and G116 .def_1))) (let ((.def_3 (not .def_2))) (let ((.def_4 (not G116))) (let ((.def_5 (and G119 .def_4))) (let ((.def_6 (not .def_5))) (let ((.def_7 (and .def_6 .def_3))) (let ((.def_8 (not .def_7))) (let ((.def_9 (and G113 .def_8))) (let ((.def_10 (not .def_9))) (let ((.def_11 (not G113))) (let ((.def_12 (and .def_11 .def_7))) (let ((.def_13 (not .def_12))) (let ((.def_14 (and .def_13 .def_10))) (let ((.def_15 (not G101))) (let ((.def_16 (not G107))) (let ((.def_17 (and .def_16 G104))) (let ((.def_18 (not .def_17))) (let ((.def_19 (not G104))) (let ((.def_20 (and G107 .def_19))) (let ((.def_21 (not .def_20))) (let ((.def_22 (and .def_21 .def_18))) (let ((.def_23 (and .def_22 .def_15))) (let ((.def_24 (not .def_23))) (let ((.def_25 (not .def_22))) (let ((.def_26 (and .def_25 G101))) (let ((.def_27 (not .def_26))) (let ((.def_28 (and .def_27 .def_24))) (let ((.def_29 (and .def_28 .def_14))) (let ((.def_30 (not .def_29))) (let ((.def_31 (not .def_28))) (let ((.def_32 (not .def_14))) (let ((.def_33 (and .def_32 .def_31))) (let ((.def_34 (not .def_33))) (let ((.def_35 (and .def_34 .def_30))) (let ((.def_36 (not G110))) (let ((.def_37 (and .def_36 G122))) (let ((.def_38 (not .def_37))) (let ((.def_39 (not G122))) (let ((.def_40 (and G110 .def_39))) (let ((.def_41 (not .def_40))) (let ((.def_42 (and .def_41 .def_38))) (let ((.def_43 (and .def_42 .def_35))) (let ((.def_44 (not .def_43))) (let ((.def_45 (not .def_35))) (let ((.def_46 (not .def_42))) (let ((.def_47 (and .def_46 .def_45))) (let ((.def_48 (not .def_47))) (let ((.def_49 (and .def_48 .def_44))) (let ((.def_50 (not G125))) (let ((.def_51 (not G143))) (let ((.def_52 (and .def_51 G146))) (let ((.def_53 (not .def_52))) (let ((.def_54 (not G146))) (let ((.def_55 (and .def_54 G143))) (let ((.def_56 (not .def_55))) (let ((.def_57 (and .def_56 .def_53))) (let ((.def_58 (not .def_57))) (let ((.def_59 (and G128 .def_58))) (let ((.def_60 (not .def_59))) (let ((.def_61 (not G128))) (let ((.def_62 (and .def_57 .def_61))) (let ((.def_63 (not .def_62))) (let ((.def_64 (and .def_63 .def_60))) (let ((.def_65 (and .def_64 .def_50))) (let ((.def_66 (not .def_65))) (let ((.def_67 (not .def_64))) (let ((.def_68 (and .def_67 G125))) (let ((.def_69 (not .def_68))) (let ((.def_70 (and .def_69 .def_66))) (let ((.def_71 (not G953))) (let ((.def_72 (and G224 .def_71))) (let ((.def_73 (and .def_72 .def_70))) (let ((.def_74 (not .def_73))) (let ((.def_75 (not .def_72))) (let ((.def_76 (not .def_70))) (let ((.def_77 (and .def_76 .def_75))) (let ((.def_78 (not .def_77))) (let ((.def_79 (and .def_78 .def_74))) (let ((.def_80 (and .def_79 .def_49))) (let ((.def_81 (not .def_80))) (let ((.def_82 (not .def_49))) (let ((.def_83 (not .def_79))) (let ((.def_84 (and .def_83 .def_82))) (let ((.def_85 (not .def_84))) (let ((.def_86 (and .def_85 .def_81))) (let ((.def_87 (and .def_86 .def_0))) (let ((.def_88 (not G237))) (let ((.def_89 (and .def_0 .def_88))) (let ((.def_90 (not .def_89))) (let ((.def_91 (and .def_90 G210))) (let ((.def_92 (not .def_91))) (let ((.def_93 (and .def_92 .def_87))) (let ((.def_94 (not .def_93))) (let ((.def_95 (not .def_87))) (let ((.def_96 (and .def_91 .def_95))) (let ((.def_97 (not .def_96))) (let ((.def_98 (and .def_97 .def_94))) (let ((.def_99 (not G140))) (let ((.def_100 (and .def_99 G110))) (let ((.def_101 (not .def_100))) (let ((.def_102 (and G140 .def_36))) (let ((.def_103 (not .def_102))) (let ((.def_104 (and .def_103 .def_101))) (let ((.def_105 (and .def_71 G227))) (let ((.def_106 (and .def_105 .def_104))) (let ((.def_107 (not .def_106))) (let ((.def_108 (not .def_104))) (let ((.def_109 (not .def_105))) (let ((.def_110 (and .def_109 .def_108))) (let ((.def_111 (not .def_110))) (let ((.def_112 (and .def_111 .def_107))) (let ((.def_113 (and G104 .def_16))) (let ((.def_114 (not .def_113))) (let ((.def_115 (and .def_19 G107))) (let ((.def_116 (not .def_115))) (let ((.def_117 (and .def_116 .def_114))) (let ((.def_118 (and .def_117 .def_15))) (let ((.def_119 (not .def_118))) (let ((.def_120 (not .def_117))) (let ((.def_121 (and .def_120 G101))) (let ((.def_122 (not .def_121))) (let ((.def_123 (and .def_122 .def_119))) (let ((.def_124 (not .def_123))) (let ((.def_125 (and G146 .def_51))) (let ((.def_126 (not .def_125))) (let ((.def_127 (and .def_126 .def_56))) (let ((.def_128 (and .def_61 .def_127))) (let ((.def_129 (not .def_128))) (let ((.def_130 (not .def_127))) (let ((.def_131 (and G128 .def_130))) (let ((.def_132 (not .def_131))) (let ((.def_133 (and .def_132 .def_129))) (let ((.def_134 (not .def_133))) (let ((.def_135 (and .def_134 .def_124))) (let ((.def_136 (not .def_135))) (let ((.def_137 (and .def_123 .def_133))) (let ((.def_138 (not .def_137))) (let ((.def_139 (and .def_138 .def_136))) (let ((.def_140 (not .def_139))) (let ((.def_141 (not G137))) (let ((.def_142 (and .def_141 G134))) (let ((.def_143 (not .def_142))) (let ((.def_144 (not G134))) (let ((.def_145 (and .def_144 G137))) (let ((.def_146 (not .def_145))) (let ((.def_147 (and .def_146 .def_143))) (let ((.def_148 (not G131))) (let ((.def_149 (and .def_148 .def_147))) (let ((.def_150 (not .def_149))) (let ((.def_151 (not .def_147))) (let ((.def_152 (and .def_151 G131))) (let ((.def_153 (not .def_152))) (let ((.def_154 (and .def_153 .def_150))) (let ((.def_155 (not .def_154))) (let ((.def_156 (and .def_155 .def_140))) (let ((.def_157 (not .def_156))) (let ((.def_158 (and .def_154 .def_139))) (let ((.def_159 (not .def_158))) (let ((.def_160 (and .def_159 .def_157))) (let ((.def_161 (and .def_160 .def_112))) (let ((.def_162 (not .def_161))) (let ((.def_163 (not .def_112))) (let ((.def_164 (not .def_160))) (let ((.def_165 (and .def_164 .def_163))) (let ((.def_166 (not .def_165))) (let ((.def_167 (and .def_166 .def_162))) (let ((.def_168 (not .def_167))) (let ((.def_169 (and .def_0 .def_168))) (let ((.def_170 (not G469))) (let ((.def_171 (and .def_170 .def_169))) (let ((.def_172 (not .def_171))) (let ((.def_173 (not .def_169))) (let ((.def_174 (and .def_173 G469))) (let ((.def_175 (not .def_174))) (let ((.def_176 (and .def_175 .def_172))) (let ((.def_177 (and .def_0 G234))) (let ((.def_178 (not .def_177))) (let ((.def_179 (and G221 .def_178))) (let ((.def_180 (not .def_179))) (let ((.def_181 (and .def_50 G140))) (let ((.def_182 (not .def_181))) (let ((.def_183 (and .def_99 G125))) (let ((.def_184 (not .def_183))) (let ((.def_185 (and .def_184 .def_182))) (let ((.def_186 (and .def_54 .def_185))) (let ((.def_187 (not .def_186))) (let ((.def_188 (not .def_185))) (let ((.def_189 (and G146 .def_188))) (let ((.def_190 (not .def_189))) (let ((.def_191 (and .def_190 .def_187))) (let ((.def_192 (and .def_71 G214 .def_88))) (let ((.def_193 (and G143 .def_192))) (let ((.def_194 (not .def_193))) (let ((.def_195 (not .def_192))) (let ((.def_196 (and .def_51 .def_195))) (let ((.def_197 (not .def_196))) (let ((.def_198 (and .def_197 .def_194))) (let ((.def_199 (and .def_198 .def_148))) (let ((.def_200 (not .def_199))) (let ((.def_201 (not .def_198))) (let ((.def_202 (and .def_201 G131))) (let ((.def_203 (not .def_202))) (let ((.def_204 (and .def_203 .def_200))) (let ((.def_205 (not .def_204))) (let ((.def_206 (and .def_205 .def_191))) (let ((.def_207 (not .def_206))) (let ((.def_208 (not .def_191))) (let ((.def_209 (and .def_208 .def_204))) (let ((.def_210 (not .def_209))) (let ((.def_211 (and .def_210 .def_207))) (let ((.def_212 (and G122 .def_11))) (let ((.def_213 (not .def_212))) (let ((.def_214 (and .def_39 G113))) (let ((.def_215 (not .def_214))) (let ((.def_216 (and .def_215 .def_213))) (let ((.def_217 (and .def_216 .def_19))) (let ((.def_218 (not .def_217))) (let ((.def_219 (not .def_216))) (let ((.def_220 (and G104 .def_219))) (let ((.def_221 (not .def_220))) (let ((.def_222 (and .def_221 .def_218))) (let ((.def_223 (not .def_222))) (let ((.def_224 (and .def_223 .def_211))) (let ((.def_225 (not .def_224))) (let ((.def_226 (not .def_211))) (let ((.def_227 (and .def_222 .def_226))) (let ((.def_228 (not .def_227))) (let ((.def_229 (and .def_228 .def_225))) (let ((.def_230 (not .def_229))) (let ((.def_231 (and .def_0 .def_230))) (let ((.def_232 (not .def_231))) (let ((.def_233 (and G475 .def_232))) (let ((.def_234 (not .def_233))) (let ((.def_235 (not G475))) (let ((.def_236 (and .def_235 .def_231))) (let ((.def_237 (not .def_236))) (let ((.def_238 (and .def_237 .def_234))) (let ((.def_239 (and .def_71 G234 G217))) (let ((.def_240 (not .def_239))) (let ((.def_241 (and G116 .def_39))) (let ((.def_242 (not .def_241))) (let ((.def_243 (and .def_4 G122))) (let ((.def_244 (not .def_243))) (let ((.def_245 (and .def_244 .def_242))) (let ((.def_246 (not .def_245))) (let ((.def_247 (and .def_246 G107))) (let ((.def_248 (not .def_247))) (let ((.def_249 (and .def_245 .def_16))) (let ((.def_250 (not .def_249))) (let ((.def_251 (and .def_250 .def_248))) (let ((.def_252 (and .def_61 G143))) (let ((.def_253 (not .def_252))) (let ((.def_254 (and .def_51 G128))) (let ((.def_255 (not .def_254))) (let ((.def_256 (and .def_255 .def_253))) (let ((.def_257 (and .def_256 .def_144))) (let ((.def_258 (not .def_257))) (let ((.def_259 (not .def_256))) (let ((.def_260 (and G134 .def_259))) (let ((.def_261 (not .def_260))) (let ((.def_262 (and .def_261 .def_258))) (let ((.def_263 (not .def_262))) (let ((.def_264 (and .def_263 .def_251))) (let ((.def_265 (not .def_264))) (let ((.def_266 (not .def_251))) (let ((.def_267 (and .def_266 .def_262))) (let ((.def_268 (not .def_267))) (let ((.def_269 (and .def_268 .def_265))) (let ((.def_270 (not .def_269))) (let ((.def_271 (and .def_270 .def_240))) (let ((.def_272 (not .def_271))) (let ((.def_273 (and .def_269 .def_239))) (let ((.def_274 (not .def_273))) (let ((.def_275 (and .def_274 .def_272))) (let ((.def_276 (not .def_275))) (let ((.def_277 (and .def_0 .def_276))) (let ((.def_278 (not .def_277))) (let ((.def_279 (and .def_278 G478))) (let ((.def_280 (not .def_279))) (let ((.def_281 (not G478))) (let ((.def_282 (and .def_277 .def_281))) (let ((.def_283 (not .def_282))) (let ((.def_284 (and .def_283 .def_280))) (let ((.def_285 (and G128 .def_1))) (let ((.def_286 (not .def_285))) (let ((.def_287 (and G119 .def_61))) (let ((.def_288 (not .def_287))) (let ((.def_289 (and .def_288 .def_286))) (let ((.def_290 (not .def_289))) (let ((.def_291 (and .def_290 G110))) (let ((.def_292 (not .def_291))) (let ((.def_293 (and .def_36 .def_289))) (let ((.def_294 (not .def_293))) (let ((.def_295 (and .def_294 .def_292))) (let ((.def_296 (and .def_185 .def_54))) (let ((.def_297 (not .def_296))) (let ((.def_298 (and .def_190 .def_297))) (let ((.def_299 (not .def_298))) (let ((.def_300 (and .def_299 .def_295))) (let ((.def_301 (not .def_300))) (let ((.def_302 (not .def_295))) (let ((.def_303 (and .def_298 .def_302))) (let ((.def_304 (not .def_303))) (let ((.def_305 (and .def_304 .def_301))) (let ((.def_306 (not .def_305))) (let ((.def_307 (and G234 G221 .def_71))) (let ((.def_308 (and G137 .def_307))) (let ((.def_309 (not .def_308))) (let ((.def_310 (not .def_307))) (let ((.def_311 (and .def_310 .def_141))) (let ((.def_312 (not .def_311))) (let ((.def_313 (and .def_312 .def_309))) (let ((.def_314 (not .def_313))) (let ((.def_315 (and .def_314 .def_306))) (let ((.def_316 (not .def_315))) (let ((.def_317 (and .def_313 .def_305))) (let ((.def_318 (not .def_317))) (let ((.def_319 (and .def_318 .def_316))) (let ((.def_320 (not .def_319))) (let ((.def_321 (and .def_320 .def_0))) (let ((.def_322 (and .def_178 G217))) (let ((.def_323 (not .def_322))) (let ((.def_324 (and .def_323 .def_321))) (let ((.def_325 (not .def_324))) (let ((.def_326 (not .def_321))) (let ((.def_327 (and .def_322 .def_326))) (let ((.def_328 (not .def_327))) (let ((.def_329 (and .def_328 .def_325))) (let ((.def_330 (and G214 .def_90))) (let ((.def_331 (not .def_330))) (let ((.def_332 (not G472))) (let ((.def_333 (and .def_71 .def_88 G210))) (let ((.def_334 (and G101 .def_333))) (let ((.def_335 (not .def_334))) (let ((.def_336 (not .def_333))) (let ((.def_337 (and .def_15 .def_336))) (let ((.def_338 (not .def_337))) (let ((.def_339 (and .def_338 .def_335))) (let ((.def_340 (not .def_339))) (let ((.def_341 (and .def_4 G119))) (let ((.def_342 (not .def_341))) (let ((.def_343 (and .def_3 .def_342))) (let ((.def_344 (and .def_11 .def_343))) (let ((.def_345 (not .def_344))) (let ((.def_346 (not .def_343))) (let ((.def_347 (and .def_346 G113))) (let ((.def_348 (not .def_347))) (let ((.def_349 (and .def_348 .def_345))) (let ((.def_350 (and .def_64 .def_154))) (let ((.def_351 (not .def_350))) (let ((.def_352 (and .def_155 .def_67))) (let ((.def_353 (not .def_352))) (let ((.def_354 (and .def_353 .def_351))) (let ((.def_355 (and .def_354 .def_349))) (let ((.def_356 (not .def_355))) (let ((.def_357 (not .def_349))) (let ((.def_358 (not .def_354))) (let ((.def_359 (and .def_358 .def_357))) (let ((.def_360 (not .def_359))) (let ((.def_361 (and .def_360 .def_356))) (let ((.def_362 (and .def_361 .def_340))) (let ((.def_363 (not .def_362))) (let ((.def_364 (not .def_361))) (let ((.def_365 (and .def_339 .def_364))) (let ((.def_366 (not .def_365))) (let ((.def_367 (and .def_366 .def_363))) (let ((.def_368 (not .def_367))) (let ((.def_369 (and .def_0 .def_368))) (let ((.def_370 (and .def_369 .def_332))) (let ((.def_371 (not .def_370))) (let ((.def_372 (not .def_369))) (let ((.def_373 (and .def_372 G472))) (let ((.def_374 (not .def_373))) (let ((.def_375 (and .def_374 .def_371))) (let ((.def_376 (and .def_375 .def_331 .def_329 .def_284 .def_238 .def_180 .def_176 .def_98))) (let ((.def_377 (not .def_376))) (let ((.def_378 (not G952))) (let ((.def_379 (and .def_71 .def_378 .def_377))) (let ((.def_380 (and .def_172 .def_175))) (let ((.def_381 (and .def_180 .def_380))) (let ((.def_382 (and .def_94 .def_97))) (let ((.def_383 (not .def_382))) (let ((.def_384 (and .def_383 .def_331))) (let ((.def_385 (and G237 G234))) (let ((.def_386 (not .def_385))) (let ((.def_387 (not G898))) (let ((.def_388 (and .def_387 G953 .def_386 G902))) (let ((.def_389 (not .def_388))) (let ((.def_390 (and .def_386 .def_71 G952))) (let ((.def_391 (not .def_390))) (let ((.def_392 (and .def_391 .def_389))) (let ((.def_393 (not .def_392))) (let ((.def_394 (and .def_325 .def_328))) (let ((.def_395 (and G472 .def_372))) (let ((.def_396 (not .def_395))) (let ((.def_397 (and .def_332 .def_369))) (let ((.def_398 (not .def_397))) (let ((.def_399 (and .def_398 .def_396))) (let ((.def_400 (not .def_399))) (let ((.def_401 (and .def_400 .def_394))) (let ((.def_402 (and .def_232 G475))) (let ((.def_403 (not .def_402))) (let ((.def_404 (and .def_403 .def_237))) (let ((.def_405 (not .def_404))) (let ((.def_406 (and .def_281 .def_277))) (let ((.def_407 (not .def_406))) (let ((.def_408 (and .def_280 .def_407))) (let ((.def_409 (and .def_408 .def_405))) (let ((.def_410 (and .def_409 .def_401 .def_393 .def_384 .def_381))) (let ((.def_411 (not .def_410))) (let ((.def_412 (and .def_408 .def_404))) (let ((.def_413 (not .def_394))) (let ((.def_414 (and .def_400 .def_413))) (let ((.def_415 (and .def_414 .def_393 .def_384 .def_381 .def_412))) (let ((.def_416 (not .def_415))) (let ((.def_417 (not .def_380))) (let ((.def_418 (and .def_180 .def_417))) (let ((.def_419 (and .def_412 .def_401 .def_393 .def_384 .def_418))) (let ((.def_420 (not .def_419))) (let ((.def_421 (not .def_408))) (let ((.def_422 (and .def_404 .def_421))) (let ((.def_423 (and .def_399 .def_394))) (let ((.def_424 (and .def_423 .def_422 .def_393 .def_384 .def_418))) (let ((.def_425 (not .def_424))) (let ((.def_426 (and .def_399 .def_413))) (let ((.def_427 (and .def_412 .def_426 .def_393 .def_384 .def_418))) (let ((.def_428 (not .def_427))) (let ((.def_429 (and .def_423 .def_409 .def_393 .def_384 .def_418))) (let ((.def_430 (not .def_429))) (let ((.def_431 (and .def_421 .def_405))) (let ((.def_432 (and .def_423 .def_431 .def_393 .def_384 .def_381))) (let ((.def_433 (not .def_432))) (let ((.def_434 (and .def_401 .def_422 .def_393 .def_384 .def_381))) (let ((.def_435 (not .def_434))) (let ((.def_436 (and .def_435 .def_433 .def_430 .def_428 .def_425 .def_420 .def_416 .def_411))) (let ((.def_437 (and .def_331 .def_382))) (let ((.def_438 (and .def_390 .def_418 .def_423 .def_437 .def_412))) (let ((.def_439 (not .def_438))) (let ((.def_440 (and .def_390 .def_401 .def_437 .def_412 .def_381))) (let ((.def_441 (not .def_440))) (let ((.def_442 (and .def_390 .def_423 .def_409 .def_437 .def_381))) (let ((.def_443 (not .def_442))) (let ((.def_444 (and .def_390 .def_423 .def_422 .def_437 .def_381))) (let ((.def_445 (not .def_444))) (let ((.def_446 (and .def_390 .def_423 .def_384 .def_381 .def_412))) (let ((.def_447 (not .def_446))) (let ((.def_448 (and .def_330 .def_382))) (let ((.def_449 (and .def_390 .def_423 .def_381 .def_412 .def_448))) (let ((.def_450 (not .def_449))) (let ((.def_451 (and .def_380 .def_179))) (let ((.def_452 (and .def_390 .def_423 .def_451 .def_437 .def_412))) (let ((.def_453 (not .def_452))) (let ((.def_454 (and .def_390 .def_426 .def_437 .def_412 .def_381))) (let ((.def_455 (not .def_454))) (let ((.def_456 (and .def_455 .def_453 .def_450 .def_447 .def_445 .def_443 .def_441 .def_439))) (let ((.def_457 (not G900))) (let ((.def_458 (and .def_386 G953 G902 .def_457))) (let ((.def_459 (not .def_458))) (let ((.def_460 (and .def_459 .def_391))) (let ((.def_461 (not .def_460))) (let ((.def_462 (and .def_418 .def_401 .def_461 .def_422 .def_437))) (let ((.def_463 (not .def_462))) (let ((.def_464 (and .def_418 .def_414 .def_461 .def_437 .def_412))) (let ((.def_465 (not .def_464))) (let ((.def_466 (and .def_414 .def_461 .def_422 .def_384 .def_418))) (let ((.def_467 (not .def_466))) (let ((.def_468 (and .def_418 .def_414 .def_409 .def_461 .def_384))) (let ((.def_469 (not .def_468))) (let ((.def_470 (and .def_418 .def_409 .def_401 .def_461 .def_437))) (let ((.def_471 (not .def_470))) (let ((.def_472 (and .def_409 .def_461 .def_426 .def_384 .def_381))) (let ((.def_473 (not .def_472))) (let ((.def_474 (and .def_418 .def_409 .def_461 .def_426 .def_437))) (let ((.def_475 (not .def_474))) (let ((.def_476 (and .def_418 .def_431 .def_401 .def_461 .def_384))) (let ((.def_477 (not .def_476))) (let ((.def_478 (and .def_477 .def_475 .def_473 .def_471 .def_469 .def_467 .def_465 .def_463))) (let ((.def_479 (and .def_478 .def_456 .def_436))) (let ((.def_480 (and .def_71 .def_479 .def_377 G952))) (let ((.def_481 (or .def_480 .def_379))) (let ((.def_482 (and G104 .def_430))) (let ((.def_483 (not .def_482))) (let ((.def_484 (and .def_19 .def_429))) (let ((.def_485 (not .def_484))) (let ((.def_486 (and .def_485 .def_483))) (let ((.def_487 (not .def_486))) (let ((.def_488 (and .def_378 G953))) (let ((.def_489 (not .def_488))) (let ((.def_490 (and .def_336 .def_15))) (let ((.def_491 (not .def_490))) (let ((.def_492 (and .def_333 G101))) (let ((.def_493 (not .def_492))) (let ((.def_494 (and .def_493 .def_491))) (let ((.def_495 (and .def_478 .def_436))) (let ((.def_496 (not .def_495))) (let ((.def_497 (and .def_496 G472 G902))) (let ((.def_498 (and .def_67 .def_155))) (let ((.def_499 (not .def_498))) (let ((.def_500 (and .def_499 .def_351))) (let ((.def_501 (and .def_500 .def_349))) (let ((.def_502 (not .def_501))) (let ((.def_503 (not .def_500))) (let ((.def_504 (and .def_357 .def_503))) (let ((.def_505 (not .def_504))) (let ((.def_506 (and .def_505 .def_502))) (let ((.def_507 (and .def_506 .def_497))) (let ((.def_508 (not .def_507))) (let ((.def_509 (not .def_497))) (let ((.def_510 (not .def_506))) (let ((.def_511 (and .def_510 .def_509))) (let ((.def_512 (not .def_511))) (let ((.def_513 (and .def_512 .def_508))) (let ((.def_514 (not .def_513))) (let ((.def_515 (and .def_514 .def_494))) (let ((.def_516 (not .def_515))) (let ((.def_517 (not .def_494))) (let ((.def_518 (and .def_513 .def_517))) (let ((.def_519 (not .def_518))) (let ((.def_520 (and .def_519 .def_516))) (let ((.def_521 (not .def_520))) (let ((.def_522 (and .def_521 .def_489))) (let ((.def_523 (and G224 G898))) (let ((.def_524 (not .def_523))) (let ((.def_525 (and .def_524 G953))) (let ((.def_526 (and .def_31 .def_32))) (let ((.def_527 (not .def_526))) (let ((.def_528 (and .def_527 .def_30))) (let ((.def_529 (and .def_42 .def_528))) (let ((.def_530 (not .def_529))) (let ((.def_531 (not .def_528))) (let ((.def_532 (and .def_531 .def_46))) (let ((.def_533 (not .def_532))) (let ((.def_534 (and .def_533 .def_530))) (let ((.def_535 (and .def_387 G953))) (let ((.def_536 (not .def_535))) (let ((.def_537 (and .def_536 .def_534))) (let ((.def_538 (not .def_537))) (let ((.def_539 (not .def_436))) (let ((.def_540 (and .def_71 .def_539))) (let ((.def_541 (and .def_540 .def_538))) (let ((.def_542 (not .def_541))) (let ((.def_543 (not .def_540))) (let ((.def_544 (and .def_543 .def_537))) (let ((.def_545 (not .def_544))) (let ((.def_546 (and .def_545 .def_542))) (let ((.def_547 (and .def_546 .def_525))) (let ((.def_548 (not .def_547))) (let ((.def_549 (not .def_525))) (let ((.def_550 (not .def_546))) (let ((.def_551 (and .def_550 .def_549))) (let ((.def_552 (not .def_551))) (let ((.def_553 (and .def_552 .def_548))) (let ((.def_554 (not .def_553))) (let ((.def_555 (and .def_11 .def_410))) (let ((.def_556 (not .def_555))) (let ((.def_557 (and G113 .def_411))) (let ((.def_558 (not .def_557))) (let ((.def_559 (and .def_558 .def_556))) (let ((.def_560 (and .def_424 .def_16))) (let ((.def_561 (not .def_560))) (let ((.def_562 (and G107 .def_425))) (let ((.def_563 (not .def_562))) (let ((.def_564 (and .def_563 .def_561))) (let ((.def_565 (and .def_36 G140))) (let ((.def_566 (not .def_565))) (let ((.def_567 (and .def_566 .def_101))) (let ((.def_568 (and .def_567 .def_105))) (let ((.def_569 (not .def_568))) (let ((.def_570 (not .def_567))) (let ((.def_571 (and .def_570 .def_109))) (let ((.def_572 (not .def_571))) (let ((.def_573 (and .def_572 .def_569))) (let ((.def_574 (and .def_133 .def_123))) (let ((.def_575 (not .def_574))) (let ((.def_576 (and .def_124 .def_134))) (let ((.def_577 (not .def_576))) (let ((.def_578 (and .def_577 .def_575))) (let ((.def_579 (not .def_578))) (let ((.def_580 (and .def_579 .def_155))) (let ((.def_581 (not .def_580))) (let ((.def_582 (and .def_578 .def_154))) (let ((.def_583 (not .def_582))) (let ((.def_584 (and .def_583 .def_581))) (let ((.def_585 (and .def_584 .def_573))) (let ((.def_586 (not .def_585))) (let ((.def_587 (not .def_573))) (let ((.def_588 (not .def_584))) (let ((.def_589 (and .def_588 .def_587))) (let ((.def_590 (not .def_589))) (let ((.def_591 (and .def_590 .def_586))) (let ((.def_592 (and .def_496 G902 G469))) (let ((.def_593 (and .def_592 .def_591))) (let ((.def_594 (not .def_593))) (let ((.def_595 (not .def_591))) (let ((.def_596 (not .def_592))) (let ((.def_597 (and .def_596 .def_595))) (let ((.def_598 (not .def_597))) (let ((.def_599 (and .def_598 .def_594))) (let ((.def_600 (not .def_599))) (let ((.def_601 (and .def_600 .def_489))) (let ((.def_602 (not .def_601))) (let ((.def_603 (and G900 G227))) (let ((.def_604 (not .def_603))) (let ((.def_605 (and G953 .def_604))) (let ((.def_606 (and G125 .def_99))) (let ((.def_607 (not .def_606))) (let ((.def_608 (and .def_182 .def_607))) (let ((.def_609 (and G137 .def_144))) (let ((.def_610 (not .def_609))) (let ((.def_611 (and .def_610 .def_143))) (let ((.def_612 (not .def_611))) (let ((.def_613 (and .def_612 G131))) (let ((.def_614 (not .def_613))) (let ((.def_615 (and .def_148 .def_611))) (let ((.def_616 (not .def_615))) (let ((.def_617 (and .def_616 .def_614))) (let ((.def_618 (and .def_617 .def_133))) (let ((.def_619 (not .def_618))) (let ((.def_620 (not .def_617))) (let ((.def_621 (and .def_134 .def_620))) (let ((.def_622 (not .def_621))) (let ((.def_623 (and .def_622 .def_619))) (let ((.def_624 (and .def_623 .def_608))) (let ((.def_625 (not .def_624))) (let ((.def_626 (not .def_608))) (let ((.def_627 (not .def_623))) (let ((.def_628 (and .def_627 .def_626))) (let ((.def_629 (not .def_628))) (let ((.def_630 (and .def_629 .def_625))) (let ((.def_631 (and G953 .def_457))) (let ((.def_632 (not .def_631))) (let ((.def_633 (and .def_632 .def_630))) (let ((.def_634 (not .def_633))) (let ((.def_635 (not .def_478))) (let ((.def_636 (and .def_635 .def_71))) (let ((.def_637 (and .def_636 .def_634))) (let ((.def_638 (not .def_637))) (let ((.def_639 (not .def_636))) (let ((.def_640 (and .def_639 .def_633))) (let ((.def_641 (not .def_640))) (let ((.def_642 (and .def_641 .def_638))) (let ((.def_643 (and .def_642 .def_605))) (let ((.def_644 (not .def_643))) (let ((.def_645 (not .def_605))) (let ((.def_646 (not .def_642))) (let ((.def_647 (and .def_646 .def_645))) (let ((.def_648 (not .def_647))) (let ((.def_649 (and .def_648 .def_644))) (let ((.def_650 (and .def_434 .def_4))) (let ((.def_651 (not .def_650))) (let ((.def_652 (and G116 .def_435))) (let ((.def_653 (not .def_652))) (let ((.def_654 (and .def_653 .def_651))) (let ((.def_655 (and .def_496 G902 G478))) (let ((.def_656 (and .def_275 .def_655))) (let ((.def_657 (not .def_656))) (let ((.def_658 (not .def_655))) (let ((.def_659 (and .def_276 .def_658))) (let ((.def_660 (not .def_659))) (let ((.def_661 (and .def_660 .def_657))) (let ((.def_662 (not .def_661))) (let ((.def_663 (and .def_489 .def_662))) (let ((.def_664 (not .def_663))) (let ((.def_665 (and .def_99 .def_474))) (let ((.def_666 (not .def_665))) (let ((.def_667 (and G140 .def_475))) (let ((.def_668 (not .def_667))) (let ((.def_669 (and .def_668 .def_666))) (let ((.def_670 (and .def_428 G110))) (let ((.def_671 (not .def_670))) (let ((.def_672 (and .def_427 .def_36))) (let ((.def_673 (not .def_672))) (let ((.def_674 (and .def_673 .def_671))) (let ((.def_675 (and .def_1 .def_415))) (let ((.def_676 (not .def_675))) (let ((.def_677 (and .def_416 G119))) (let ((.def_678 (not .def_677))) (let ((.def_679 (and .def_678 .def_676))) (let ((.def_680 (and .def_496 G902 .def_322))) (let ((.def_681 (and .def_680 .def_319))) (let ((.def_682 (not .def_681))) (let ((.def_683 (not .def_680))) (let ((.def_684 (and .def_683 .def_320))) (let ((.def_685 (not .def_684))) (let ((.def_686 (and .def_685 .def_682))) (let ((.def_687 (not .def_686))) (let ((.def_688 (and .def_687 .def_489))) (let ((.def_689 (and G125 .def_67))) (let ((.def_690 (not .def_689))) (let ((.def_691 (and .def_690 .def_66))) (let ((.def_692 (and .def_72 .def_691))) (let ((.def_693 (not .def_692))) (let ((.def_694 (not .def_691))) (let ((.def_695 (and .def_694 .def_75))) (let ((.def_696 (not .def_695))) (let ((.def_697 (and .def_696 .def_693))) (let ((.def_698 (and .def_82 .def_697))) (let ((.def_699 (not .def_698))) (let ((.def_700 (not .def_697))) (let ((.def_701 (and .def_700 .def_49))) (let ((.def_702 (not .def_701))) (let ((.def_703 (and .def_702 .def_699))) (let ((.def_704 (and .def_496 G902 .def_91))) (let ((.def_705 (and .def_704 .def_703))) (let ((.def_706 (not .def_705))) (let ((.def_707 (not .def_704))) (let ((.def_708 (not .def_703))) (let ((.def_709 (and .def_708 .def_707))) (let ((.def_710 (not .def_709))) (let ((.def_711 (and .def_710 .def_706))) (let ((.def_712 (not .def_711))) (let ((.def_713 (and .def_712 .def_489))) (let ((.def_714 (not .def_713))) (let ((.def_715 (and .def_420 G101))) (let ((.def_716 (not .def_715))) (let ((.def_717 (and .def_15 .def_419))) (let ((.def_718 (not .def_717))) (let ((.def_719 (and .def_718 .def_716))) (let ((.def_720 (not .def_719))) (let ((.def_721 (and .def_470 .def_148))) (let ((.def_722 (not .def_721))) (let ((.def_723 (and .def_471 G131))) (let ((.def_724 (not .def_723))) (let ((.def_725 (and .def_724 .def_722))) (let ((.def_726 (and .def_144 .def_462))) (let ((.def_727 (not .def_726))) (let ((.def_728 (and G134 .def_463))) (let ((.def_729 (not .def_728))) (let ((.def_730 (and .def_729 .def_727))) (let ((.def_731 (not .def_730))) (let ((.def_732 (and G125 .def_473))) (let ((.def_733 (not .def_732))) (let ((.def_734 (and .def_50 .def_472))) (let ((.def_735 (not .def_734))) (let ((.def_736 (and .def_735 .def_733))) (let ((.def_737 (not .def_736))) (let ((.def_738 (and .def_496 G902 G475))) (let ((.def_739 (and .def_229 .def_738))) (let ((.def_740 (not .def_739))) (let ((.def_741 (not .def_738))) (let ((.def_742 (and .def_741 .def_230))) (let ((.def_743 (not .def_742))) (let ((.def_744 (and .def_743 .def_740))) (let ((.def_745 (not .def_744))) (let ((.def_746 (and .def_489 .def_745))) (let ((.def_747 (not .def_746))) (let ((.def_748 (and .def_747 .def_737 .def_731 .def_725 .def_720 .def_714 .def_688 .def_679 .def_674 .def_669 .def_664 .def_654 .def_649 .def_602 .def_564 .def_559 .def_554 .def_522 .def_487 .def_481))) .def_748))))))))))))))))))))))))))))))))))))))))))))))))))))))))))))))))))))))))))))))))))))))))))))))))))))))))))))))))))))))))))))))))))))))))))))))))))))))))))))))))))))))))))))))))))))))))))))))))))))))))))))))))))))))))))))))))))))))))))))))))))))))))))))))))))))))))))))))))))))))))))))))))))))))))))))))))))))))))))))))))))))))))))))))))))))))))))))))))))))))))))))))))))))))))))))))))))))))))))))))))))))))))))))))))))))))))))))))))))))))))))))))))))))))))))))))))))))))))))))))))))))))))))))))))))))))))))))))))))))))))))))))))))))))))))))))))))))))))))))))))))))))))))))))))))))))))))))))))))))))))))))))))))))))))))))))))))))))))))))))))))))))))))))))))))))))))))))))))))))))))))))))))))))))))))))))))))))))))))))))))))))))))))))))))))))))))))))))
(check-sat)
